job_count = 16 ;
duration = [|17, 4|4, 8|6, 2|6, 7|12, 7|10, 4|15, 9|10, 1|15, 6|8, 8|15, 2|15, 1|9, 2|17, 6|6, 1|12, 1|] ;
machine_count = 2 ;
cost = [|16, 24|13, 31|15, 20|19, 20|15, 26|17, 25|14, 35|14, 28|13, 24|17, 38|10, 25|19, 21|10, 27|15, 26|19, 28|17, 23|] ;
deadline = [40, 40, 40, 40, 40, 40, 40, 40, 40, 40, 40, 40, 40, 40, 40, 40] ;
release = [0, 0, 0, 0, 0, 0, 0, 0, 0, 0, 0, 0, 0, 0, 0, 0] ;
resource = [|8, 8|3, 3|6, 6|6, 6|2, 2|3, 3|3, 3|2, 2|7, 7|2, 2|6, 6|7, 7|4, 4|6, 6|2, 2|3, 3|] ;
capacities = [10, 10] ;
